;; unsat

(declare-const x1 sl.list.loc)
(declare-const x2 sl.list.loc)
(declare-const x3 sl.list.loc)
(declare-const x4 sl.list.loc)
(declare-const x5 sl.list.loc)
(declare-const x6 sl.list.loc)
(declare-const x7 sl.list.loc)
(declare-const x8 sl.list.loc)
(declare-const x9 sl.list.loc)
(declare-const x10 sl.list.loc)
(declare-const x11 sl.list.loc)
(declare-const x12 sl.list.loc)

(assert (sl.sepcon (sl.sepcon (sl.sepcon (sl.sepcon (sl.sepcon (sl.sepcon (sl.sepcon (sl.sepcon (sl.sepcon (sl.list.eq sl.list.null sl.list.null)
 (sl.list.neq x8 x11)
)
 (sl.list.neq x8 x12)
)
 (sl.list.neq x1 x3)
)
 (sl.list.neq x1 x7)
)
 (sl.list.neq x4 x7)
)
 (sl.list.neq x3 x10)
)
 (sl.list.neq x9 x10)
)
 (sl.list.neq x2 x3)
)
 (sl.sepcon (sl.sepcon (sl.sepcon (sl.sepcon (sl.sepcon (sl.sepcon (sl.sepcon (sl.sepcon (sl.sepcon (sl.sepcon (sl.sepcon (sl.list.seg x5 x2)
 (sl.list.seg x5 x7)
)
 (sl.list.seg x2 x4)
)
 (sl.list.seg x10 x12)
)
 (sl.list.seg x10 x8)
)
 (sl.list.seg x9 x5)
)
 (sl.list.seg x9 x11)
)
 (sl.list.seg x7 x10)
)
 (sl.list.seg x3 x5)
)
 (sl.list.seg x1 x6)
)
 (sl.list.seg x6 x9)
)
 (sl.list.seg x6 x3)
)
)
)

